100 500 200 500 10 100
71 418
30 248
24 466
34 410
18 273
49 306
30 313
91 386
59 431
82 382
87 365
50 392
83 323
89 399
62 315
14 277
36 388
51 411
67 308
64 376
94 467
54 426
28 260
98 372
77 490
10 227
60 342
45 261
86 426
22 300
53 364
87 272
13 351
45 354
30 251
62 289
64 409
53 245
66 224
77 409
83 470
59 265
43 202
91 226
43 485
30 468
82 402
27 297
98 420
35 461
24 327
57 438
19 463
24 403
14 349
71 398
84 445
46 329
39 237
99 324
93 430
21 216
52 479
76 282
17 463
84 319
50 241
27 223
40 438
88 439
48 486
85 304
94 247
10 276
19 236
57 204
44 339
93 496
60 283
89 466
85 269
15 234
65 488
47 262
80 433
93 411
45 285
65 496
23 396
23 366
82 370
88 295
92 390
65 275
64 318
71 418
78 273
36 447
25 407
91 436
